\ Model team01_4_4_model
\ LP format - for model browsing. Use MPS format to capture full model detail.
Minimize
  0.1666666666666667 c[0,0] + 0.1666666666666667 c[0,1]
   + 0.1666666666666667 c[0,2] + 0.1666666666666667 c[0,3]
   + 0.1666666666666667 c[0,4] + 0.1666666666666667 c[0,5]
   + 0.1666666666666667 c[1,0] + 0.1666666666666667 c[1,1]
   + 0.1666666666666667 c[1,2] + 0.1666666666666667 c[1,3]
   + 0.1666666666666667 c[1,4] + 0.1666666666666667 c[1,5]
   + 0.1666666666666667 c[2,0] + 0.1666666666666667 c[2,1]
   + 0.1666666666666667 c[2,2] + 0.1666666666666667 c[2,3]
   + 0.1666666666666667 c[2,4] + 0.1666666666666667 c[2,5]
   + 0.1666666666666667 c[3,0] + 0.1666666666666667 c[3,1]
   + 0.1666666666666667 c[3,2] + 0.1666666666666667 c[3,3]
   + 0.1666666666666667 c[3,4] + 0.1666666666666667 c[3,5]
   + 0.1666666666666667 c[4,0] + 0.1666666666666667 c[4,1]
   + 0.1666666666666667 c[4,2] + 0.1666666666666667 c[4,3]
   + 0.1666666666666667 c[4,4] + 0.1666666666666667 c[4,5]
   + 0.1666666666666667 c[5,0] + 0.1666666666666667 c[5,1]
   + 0.1666666666666667 c[5,2] + 0.1666666666666667 c[5,3]
   + 0.1666666666666667 c[5,4] + 0.1666666666666667 c[5,5]
Subject To
 c1_0_0: - 1e+06 x[0,0] - f[0] + c[0,0] >= -1e+06
 c1_0_1: - 1e+06 x[0,1] - f[0] + c[0,1] >= -1e+06
 c1_0_2: - 1e+06 x[0,2] - f[0] + c[0,2] >= -1e+06
 c1_0_3: - 1e+06 x[0,3] - f[0] + c[0,3] >= -1e+06
 c1_0_4: - 1e+06 x[0,4] - f[0] + c[0,4] >= -1e+06
 c1_0_5: - 1e+06 x[0,5] - f[0] + c[0,5] >= -1e+06
 c1_1_0: - 1e+06 x[1,0] - f[1] + c[1,0] >= -1e+06
 c1_1_1: - 1e+06 x[1,1] - f[1] + c[1,1] >= -1e+06
 c1_1_2: - 1e+06 x[1,2] - f[1] + c[1,2] >= -1e+06
 c1_1_3: - 1e+06 x[1,3] - f[1] + c[1,3] >= -1e+06
 c1_1_4: - 1e+06 x[1,4] - f[1] + c[1,4] >= -1e+06
 c1_1_5: - 1e+06 x[1,5] - f[1] + c[1,5] >= -1e+06
 c1_2_0: - 1e+06 x[2,0] - f[2] + c[2,0] >= -1e+06
 c1_2_1: - 1e+06 x[2,1] - f[2] + c[2,1] >= -1e+06
 c1_2_2: - 1e+06 x[2,2] - f[2] + c[2,2] >= -1e+06
 c1_2_3: - 1e+06 x[2,3] - f[2] + c[2,3] >= -1e+06
 c1_2_4: - 1e+06 x[2,4] - f[2] + c[2,4] >= -1e+06
 c1_2_5: - 1e+06 x[2,5] - f[2] + c[2,5] >= -1e+06
 c1_3_0: - 1e+06 x[3,0] - f[3] + c[3,0] >= -1e+06
 c1_3_1: - 1e+06 x[3,1] - f[3] + c[3,1] >= -1e+06
 c1_3_2: - 1e+06 x[3,2] - f[3] + c[3,2] >= -1e+06
 c1_3_3: - 1e+06 x[3,3] - f[3] + c[3,3] >= -1e+06
 c1_3_4: - 1e+06 x[3,4] - f[3] + c[3,4] >= -1e+06
 c1_3_5: - 1e+06 x[3,5] - f[3] + c[3,5] >= -1e+06
 c1_4_0: - 1e+06 x[4,0] - f[4] + c[4,0] >= -1e+06
 c1_4_1: - 1e+06 x[4,1] - f[4] + c[4,1] >= -1e+06
 c1_4_2: - 1e+06 x[4,2] - f[4] + c[4,2] >= -1e+06
 c1_4_3: - 1e+06 x[4,3] - f[4] + c[4,3] >= -1e+06
 c1_4_4: - 1e+06 x[4,4] - f[4] + c[4,4] >= -1e+06
 c1_4_5: - 1e+06 x[4,5] - f[4] + c[4,5] >= -1e+06
 c1_5_0: - 1e+06 x[5,0] - f[5] + c[5,0] >= -1e+06
 c1_5_1: - 1e+06 x[5,1] - f[5] + c[5,1] >= -1e+06
 c1_5_2: - 1e+06 x[5,2] - f[5] + c[5,2] >= -1e+06
 c1_5_3: - 1e+06 x[5,3] - f[5] + c[5,3] >= -1e+06
 c1_5_4: - 1e+06 x[5,4] - f[5] + c[5,4] >= -1e+06
 c1_5_5: - 1e+06 x[5,5] - f[5] + c[5,5] >= -1e+06
 c3: s[0] = 0
 c5_0: x[0,0] + x[0,1] + x[0,2] + x[0,3] + x[0,4] + x[0,5] = 1
 c5_1: x[1,0] + x[1,1] + x[1,2] + x[1,3] + x[1,4] + x[1,5] = 1
 c5_2: x[2,0] + x[2,1] + x[2,2] + x[2,3] + x[2,4] + x[2,5] = 1
 c5_3: x[3,0] + x[3,1] + x[3,2] + x[3,3] + x[3,4] + x[3,5] = 1
 c5_4: x[4,0] + x[4,1] + x[4,2] + x[4,3] + x[4,4] + x[4,5] = 1
 c5_5: x[5,0] + x[5,1] + x[5,2] + x[5,3] + x[5,4] + x[5,5] = 1
 c6_0: x[0,0] + x[1,0] + x[2,0] + x[3,0] + x[4,0] + x[5,0] = 1
 c6_1: x[0,1] + x[1,1] + x[2,1] + x[3,1] + x[4,1] + x[5,1] = 1
 c6_2: x[0,2] + x[1,2] + x[2,2] + x[3,2] + x[4,2] + x[5,2] = 1
 c6_3: x[0,3] + x[1,3] + x[2,3] + x[3,3] + x[4,3] + x[5,3] = 1
 c6_4: x[0,4] + x[1,4] + x[2,4] + x[3,4] + x[4,4] + x[5,4] = 1
 c6_5: x[0,5] + x[1,5] + x[2,5] + x[3,5] + x[4,5] + x[5,5] = 1
 c7_0: - 21 x[0,0] - 31 x[1,0] - 5 x[2,0] - 15 x[3,0] - 10 x[4,0]
   - 12 x[5,0] + pt[0] = 0
 c7_1: - 21 x[0,1] - 31 x[1,1] - 5 x[2,1] - 15 x[3,1] - 10 x[4,1]
   - 12 x[5,1] + pt[1] = 0
 c7_2: - 21 x[0,2] - 31 x[1,2] - 5 x[2,2] - 15 x[3,2] - 10 x[4,2]
   - 12 x[5,2] + pt[2] = 0
 c7_3: - 21 x[0,3] - 31 x[1,3] - 5 x[2,3] - 15 x[3,3] - 10 x[4,3]
   - 12 x[5,3] + pt[3] = 0
 c7_4: - 21 x[0,4] - 31 x[1,4] - 5 x[2,4] - 15 x[3,4] - 10 x[4,4]
   - 12 x[5,4] + pt[4] = 0
 c7_5: - 21 x[0,5] - 31 x[1,5] - 5 x[2,5] - 15 x[3,5] - 10 x[4,5]
   - 12 x[5,5] + pt[5] = 0
 c8_0: pt[0] - pt[1] >= 0
 c8_1: pt[1] - pt[2] >= 0
 c8_2: pt[2] - pt[3] >= 0
 c8_3: pt[3] - pt[4] >= 0
 c8_4: pt[4] - pt[5] >= 0
 c2_0: - s[0] + f[0] + [ - x[0,0] * pt[0] - x[0,1] * pt[0] - x[0,2] * pt[0]
   - x[0,3] * pt[0] - x[0,4] * pt[0] - x[0,5] * pt[0] ] >= 0
 c2_1: - s[1] + f[1] + [ - x[1,0] * pt[1] - x[1,1] * pt[1] - x[1,2] * pt[1]
   - x[1,3] * pt[1] - x[1,4] * pt[1] - x[1,5] * pt[1] ] >= 0
 c2_2: - s[2] + f[2] + [ - x[2,0] * pt[2] - x[2,1] * pt[2] - x[2,2] * pt[2]
   - x[2,3] * pt[2] - x[2,4] * pt[2] - x[2,5] * pt[2] ] >= 0
 c2_3: - s[3] + f[3] + [ - x[3,0] * pt[3] - x[3,1] * pt[3] - x[3,2] * pt[3]
   - x[3,3] * pt[3] - x[3,4] * pt[3] - x[3,5] * pt[3] ] >= 0
 c2_4: - s[4] + f[4] + [ - x[4,0] * pt[4] - x[4,1] * pt[4] - x[4,2] * pt[4]
   - x[4,3] * pt[4] - x[4,4] * pt[4] - x[4,5] * pt[4] ] >= 0
 c2_5: - s[5] + f[5] + [ - x[5,0] * pt[5] - x[5,1] * pt[5] - x[5,2] * pt[5]
   - x[5,3] * pt[5] - x[5,4] * pt[5] - x[5,5] * pt[5] ] >= 0
 c4_0: - s[0] + s[1] + [ - x[0,0] * pt[0] - x[0,1] * pt[0] - x[0,2] * pt[0]
   - x[0,3] * pt[0] - x[0,4] * pt[0] - x[0,5] * pt[0] ] >= 0
 c4_1: - s[1] + s[2] + [ - x[1,0] * pt[1] - x[1,1] * pt[1] - x[1,2] * pt[1]
   - x[1,3] * pt[1] - x[1,4] * pt[1] - x[1,5] * pt[1] ] >= 0
 c4_2: - s[2] + s[3] + [ - x[2,0] * pt[2] - x[2,1] * pt[2] - x[2,2] * pt[2]
   - x[2,3] * pt[2] - x[2,4] * pt[2] - x[2,5] * pt[2] ] >= 0
 c4_3: - s[3] + s[4] + [ - x[3,0] * pt[3] - x[3,1] * pt[3] - x[3,2] * pt[3]
   - x[3,3] * pt[3] - x[3,4] * pt[3] - x[3,5] * pt[3] ] >= 0
 c4_4: - s[4] + s[5] + [ - x[4,0] * pt[4] - x[4,1] * pt[4] - x[4,2] * pt[4]
   - x[4,3] * pt[4] - x[4,4] * pt[4] - x[4,5] * pt[4] ] >= 0
Bounds
Binaries
 x[0,0] x[0,1] x[0,2] x[0,3] x[0,4] x[0,5] x[1,0] x[1,1] x[1,2] x[1,3]
 x[1,4] x[1,5] x[2,0] x[2,1] x[2,2] x[2,3] x[2,4] x[2,5] x[3,0] x[3,1]
 x[3,2] x[3,3] x[3,4] x[3,5] x[4,0] x[4,1] x[4,2] x[4,3] x[4,4] x[4,5]
 x[5,0] x[5,1] x[5,2] x[5,3] x[5,4] x[5,5]
Generals
 s[0] s[1] s[2] s[3] s[4] s[5] f[0] f[1] f[2] f[3] f[4] f[5] c[0,0] c[0,1]
 c[0,2] c[0,3] c[0,4] c[0,5] c[1,0] c[1,1] c[1,2] c[1,3] c[1,4] c[1,5]
 c[2,0] c[2,1] c[2,2] c[2,3] c[2,4] c[2,5] c[3,0] c[3,1] c[3,2] c[3,3]
 c[3,4] c[3,5] c[4,0] c[4,1] c[4,2] c[4,3] c[4,4] c[4,5] c[5,0] c[5,1]
 c[5,2] c[5,3] c[5,4] c[5,5] pt[0] pt[1] pt[2] pt[3] pt[4] pt[5]
End
